s td 60 7 66
b 1 1 2 12
b 2 10 11 22
b 3 45 56 57
b 4 55 65 66
b 5 2 3 12 13
b 6 9 10 21 22
b 7 3 4 15 27 39 51 63
b 8 4 5 15 27 39 51 63
b 9 5 15 17 27 39 51 63
b 10 5 7 17 27 39 51 63
b 11 5 6 7 17
b 12 7 17 27 29 39 51 63
b 13 7 17 29 39 41 51 63
b 14 7 17 29 41 51 53 63
b 15 7 17 19 29 41 53 63
b 16 7 19 29 31 41 53 63
b 17 7 19 31 41 43 53 63
b 18 7 19 31 33 43 53 63
b 19 7 9 19 31 33 43
b 20 7 8 9 19
b 21 9 19 21 31 33 43
b 22 9 19 20 21 31
b 23 9 21 22 33
b 24 21 31 32 33 43
b 25 33 43 53 63 65
b 26 33 43 53 54 65
b 27 33 43 44 54 65
b 28 53 63 64 65
b 29 31 41 42 43 53
b 30 19 29 30 31 41
b 31 7 17 18 19 29
b 32 41 51 52 53 63
b 33 29 39 40 41 51
b 34 17 27 28 29 39
b 35 5 15 16 17 27
b 36 3 15 27 39 51 61 63
b 37 3 15 27 39 49 51 61
b 38 3 15 27 39 49 59 61
b 39 3 15 27 37 39 49 59
b 40 3 15 27 37 47 49 59
b 41 3 15 25 27 37 47 59
b 42 3 15 25 35 37 47 59
b 43 3 15 25 34 35 47 59
b 44 3 13 15 25 34 35
b 45 3 13 24 25 34 35
b 46 3 13 23 24 34
b 47 3 12 13 23
b 48 3 13 14 15 25
b 49 34 35 47 57 59
b 50 34 35 46 47 57
b 51 47 57 58 59
b 52 25 35 36 37 47
b 53 15 25 26 27 37
b 54 37 47 48 49 59
b 55 27 37 38 39 49
b 56 49 59 60 61
b 57 39 49 50 51 61
b 58 51 61 62 63
b 59 34 45 46 57
b 60 44 54 55 65
1 5
2 6
3 59
4 60
5 47
6 23
7 8
7 36
8 9
9 10
9 35
10 11
10 12
12 13
12 34
13 14
13 33
14 15
14 32
15 16
15 31
16 17
16 30
17 18
17 29
18 19
18 25
19 20
19 21
21 22
21 23
21 24
25 26
25 28
26 27
27 60
36 37
36 58
37 38
37 57
38 39
38 56
39 40
39 55
40 41
40 54
41 42
41 53
42 43
42 52
43 44
43 49
44 45
44 48
45 46
46 47
49 50
49 51
50 59
